Instance name : SB_bar-n100-6
Authors : 
Date : 
Reference 
Solution
Route 1 : 22 72 16 66 12 1 51 20 70 21 62 71 42 19 28 9 69 11 78 59 61 24 92 74 
Route 2 : 43 93 47 97 4 30 41 91 37 87 54 5 17 67 2 45 80 95 14 64 52 44 55 46 94 96 
Route 3 : 29 34 48 79 84 6 8 98 56 13 26 3 76 63 49 39 58 53 99 89 
Route 4 : 31 32 82 81 25 38 40 88 75 18 15 90 68 65 23 7 57 27 77 73 36 33 35 85 10 60 50 83 86 100 
